675
307
795
1547
2217
150
447
1602
1074
74
556
2572
679
766
1494
959
167
537
191
813
635
163
170
888
182
256
256
387
2078
388
263
332
180
1092
86
332
41
759
224
1992
332
106
0
95
1673
662
128
296
753
539
238
646
2921
265
61
67
1438
644
39
594
177
886
1631
616
73
1553
45
2023
2577
199
1102
597
901
648
1083
293
143
524
136
774
35
957
1581
104
178
2176
716
1469
320
2015
1552
1664
97
1037
2475
811
83
143
557
452
